unsat
(:max-memory         18.42
 :memory             18.33
 :nlsat-arith-var    3
 :nlsat-atoms        12
 :nlsat-bool-var     1
 :nlsat-clauses      10
 :nlsat-conflicts    3
 :nlsat-propagations 8
 :nlsat-stages       3
 :num-allocs         51983
 :rlimit-count       1923
 :time               0.00
 :total-time         0.02)
